Data path: /scratch/opt/lxu/CFLG/benchmarks/tree_B
Instance: treeB.400.60
Result path: /scratch/opt/lxu/CFLG/results/tree_B
Solver: Gurobi
Time limit: 7200
Formulation: LEVFP
Cover: Large
julia --project=. src/main.jl /scratch/opt/lxu/CFLG/benchmarks/tree_B treeB.400.60 /scratch/opt/lxu/CFLG/results/tree_B Gurobi 7200 LEVFP Large
The latest version of Julia in the `release` channel is 1.11.5+0.x64.linux.gnu. You currently have `1.11.4+0.x64.linux.gnu` installed. Run:

  juliaup update

in your terminal shell to install Julia 1.11.5+0.x64.linux.gnu and update the `release` channel to that version.
/scratch/opt/lxu/CFLG/benchmarks/tree_B Gurobi 7200.0 /scratch/opt/lxu/CFLG/results/tree_B treeB.400.60 LEVFP Large
/scratch/opt/lxu/CFLG/benchmarks/tree_B/treeB.400.60

 read graph
data loaded

problem_graph/original graph: node: 400/400 edge: 459/459 dlt: 2.9841939718746437 break_avg_len: 1.4920969859373219 break_max_len: 1.9993735655001792elapsed CPU time: 0.147512 seconds
Set parameter TokenServer to value "solice01.zib.de"
Set parameter Threads to value 1
Set parameter OutputFlag to value 1
Set parameter MIPGap to value 0.0001
Set parameter TimeLimit to value 7199.852488

 model loaded

Gurobi Optimizer version 12.0.1 build v12.0.1rc0 (linux64 - "Debian GNU/Linux 12 (bookworm)")

CPU model: Intel(R) Xeon(R) Gold 5122 CPU @ 3.60GHz, instruction set [SSE2|AVX|AVX2|AVX512]
Thread count: 8 physical cores, 16 logical processors, using up to 1 threads

Non-default parameters:
TimeLimit  7199.852488
Threads  1

Optimize a model with 19862 rows, 8795 columns and 54073 nonzeros
Model fingerprint: 0xc9d19bda
Variable types: 859 continuous, 7936 integer (7936 binary)
Coefficient statistics:
  Matrix range     [1e-06, 4e+00]
  Objective range  [1e+00, 1e+00]
  Bounds range     [1e+00, 2e+00]
  RHS range        [1e+00, 5e+00]
Found heuristic solution: objective 247.0000000
Presolve removed 5609 rows and 999 columns
Presolve time: 0.68s
Presolved: 14253 rows, 7796 columns, 79443 nonzeros
Variable types: 855 continuous, 6941 integer (6941 binary)

Root relaxation: objective 6.962053e+01, 7531 iterations, 0.28 seconds (0.21 work units)

    Nodes    |    Current Node    |     Objective Bounds      |     Work
 Expl Unexpl |  Obj  Depth IntInf | Incumbent    BestBd   Gap | It/Node Time

     0     0   69.62053    0  617  247.00000   69.62053  71.8%     -    1s
H    0     0                     187.0000000   69.62053  62.8%     -    1s
H    0     0                     183.0000000   69.62053  62.0%     -    1s
H    0     0                     182.0000000   69.62053  61.7%     -    1s
     0     0   73.47588    0  710  182.00000   73.47588  59.6%     -    1s
H    0     0                     103.0000000   73.47588  28.7%     -    2s
H    0     0                     102.0000000   73.47588  28.0%     -    2s
H    0     0                      92.0000000   73.47588  20.1%     -    2s
H    0     0                      91.0000000   73.47588  19.3%     -    2s
H    0     0                      86.0000000   73.47588  14.6%     -    2s
     0     0   73.48889    0  659   86.00000   73.48889  14.5%     -    2s
     0     0   73.48889    0  611   86.00000   73.48889  14.5%     -    2s
     0     0   74.58710    0  625   86.00000   74.58710  13.3%     -    2s
     0     0   74.58710    0  598   86.00000   74.58710  13.3%     -    2s
     0     0   74.75000    0  474   86.00000   74.75000  13.1%     -    2s
H    0     0                      85.0000000   74.75000  12.1%     -    2s
H    0     0                      83.0000000   74.75000  9.94%     -    2s
     0     0   74.75000    0  463   83.00000   74.75000  9.94%     -    3s
     0     0   74.87500    0  552   83.00000   74.87500  9.79%     -    3s
     0     0   74.87500    0  542   83.00000   74.87500  9.79%     -    3s
     0     0   74.87500    0  620   83.00000   74.87500  9.79%     -    3s
H    0     0                      82.0000000   74.87500  8.69%     -    3s
     0     0   74.87874    0  746   82.00000   74.87874  8.68%     -    3s
     0     0   74.87874    0  709   82.00000   74.87874  8.68%     -    3s
     0     0   74.93686    0  459   82.00000   74.93686  8.61%     -    4s
     0     0   74.93686    0  459   82.00000   74.93686  8.61%     -    4s
H    0     0                      81.0000000   74.93686  7.49%     -    5s
     0     0   74.93686    0  535   81.00000   74.93686  7.49%     -    5s
     0     0   74.95805    0  587   81.00000   74.95805  7.46%     -    5s
     0     0   74.95907    0  543   81.00000   74.95907  7.46%     -    5s
     0     0   74.95959    0  666   81.00000   74.95959  7.46%     -    5s
     0     0   74.96262    0  670   81.00000   74.96262  7.45%     -    5s
     0     0   74.96262    0  670   81.00000   74.96262  7.45%     -    5s
     0     0   74.99471    0  664   81.00000   74.99471  7.41%     -    6s
     0     0   74.99546    0  765   81.00000   74.99546  7.41%     -    6s
     0     0   74.99599    0  683   81.00000   74.99599  7.41%     -    6s
     0     0   74.99599    0  682   81.00000   74.99599  7.41%     -    6s
     0     0   74.99599    0  671   81.00000   74.99599  7.41%     -    6s
     0     0   74.99599    0  378   81.00000   74.99599  7.41%     -    7s
H    0     0                      80.0000000   75.00155  6.25%     -    7s
     0     2   75.00155    0  314   80.00000   75.00155  6.25%     -    7s
    85    78   75.31598    4  688   80.00000   75.10191  6.12%   182   10s
   310   253   76.41518    8  511   80.00000   75.10592  6.12%   147   15s
H  550   271                      79.0000000   75.10592  4.93%   124   18s
   612   299   77.18414   23  378   79.00000   75.11012  4.92%   127   22s
   615   301   77.05789   13  503   79.00000   75.11012  4.92%   126   25s
   624   307   78.00000   51  329   79.00000   75.59722  4.31%   124   30s
   632   312   76.51755   21  456   79.00000   75.92079  3.90%   123   35s
   640   318   77.76296   46  489   79.00000   76.12038  3.65%   121   40s
   650   324   76.89610   12  445   79.00000   76.37802  3.32%   119   45s
   663   333   76.52995   15  503   79.00000   76.52995  3.13%   117   51s
   673   340   77.46186   15  355   79.00000   76.65735  2.97%   115   55s
   683   348   76.83333   19  260   79.00000   76.65735  2.97%   396   60s
   696   357   76.78303   14  336   79.00000   76.78303  2.81%   389   65s
   705   363   78.00000   57  174   79.00000   77.16667  2.32%   384   70s
   712   367   77.18414   23  136   79.00000   77.16667  2.32%   380   75s
   718   373   77.16667   40  182   79.00000   77.16667  2.32%   492   80s
   730   381   77.16667    7  172   79.00000   77.16667  2.32%   484   85s
   779   403   77.51024   44  117   79.00000   77.21429  2.26%   429   90s
   984   391   77.74753   55  146   79.00000   77.50000  1.90%   356   95s
  1172   300   78.00000   41   85   79.00000   78.00000  1.27%   325  100s

Cutting planes:
  Gomory: 3
  Lift-and-project: 7
  Cover: 52
  Implied bound: 27
  Projected implied bound: 8
  Clique: 13
  MIR: 106
  Mixing: 2
  StrongCG: 3
  Flow cover: 171
  GUB cover: 32
  Zero half: 23
  RLT: 15
  Relax-and-lift: 32

Explored 1237 nodes (522048 simplex iterations) in 101.09 seconds (76.48 work units)
Thread count was 1 (of 16 available processors)

Solution count 10: 79 79 80 ... 85

Optimal solution found (tolerance 1.00e-04)
Best objective 7.900000000000e+01, best bound 7.900000000000e+01, gap 0.0000%

User-callback calls 28148, time in user-callback 0.05 sec
Stat(MathOptInterface.OPTIMAL, 79.0, 79.0, 0.0, 1.0e-323, 0.147512, 101.09148001670837, 1237, Main.CFLG.LEVFP, "", #undef)
